c Standarized MaxSat Instance
c{
c "sha1sum": "ba591dab48b01dfd2cdf8349277a0e41cc966d30",
c "nvars": 60,
c "ncls": 840,
c "nhards": 0,
c "nhard_len_stats":
c    { "min": 0, "max": 0, "ave": 0.00,
c      "stddev": 0.00 },
c "nsofts": 840,
c "nsoft_len_stats":
c    { "min": 2, "max": 2, "ave": 2.00,
c      "stddev": 0.00 },
c "nsoft_wts": 10,
c "soft_wt_stats":
c    { "min": 1, "max": 10, "ave": 5.61,
c      "stddev": 2.87 }
c}
c------------------------------------------------------------
c Generated after 1 tries
c Graph with 60 nodes and 420 edges, Max edges:1770
p wcnf 60 840 4713
9 1 5 0
9 -1 -5 0
4 1 6 0
4 -1 -6 0
8 1 8 0
8 -1 -8 0
8 1 18 0
8 -1 -18 0
10 1 21 0
10 -1 -21 0
2 1 35 0
2 -1 -35 0
4 1 36 0
4 -1 -36 0
8 1 46 0
8 -1 -46 0
3 1 50 0
3 -1 -50 0
6 1 53 0
6 -1 -53 0
5 1 55 0
5 -1 -55 0
7 1 57 0
7 -1 -57 0
4 1 60 0
4 -1 -60 0
6 2 9 0
6 -2 -9 0
10 2 12 0
10 -2 -12 0
10 2 15 0
10 -2 -15 0
7 2 16 0
7 -2 -16 0
8 2 20 0
8 -2 -20 0
2 2 22 0
2 -2 -22 0
7 2 28 0
7 -2 -28 0
1 2 32 0
1 -2 -32 0
3 2 33 0
3 -2 -33 0
2 2 39 0
2 -2 -39 0
9 2 47 0
9 -2 -47 0
2 3 14 0
2 -3 -14 0
5 3 15 0
5 -3 -15 0
2 3 16 0
2 -3 -16 0
2 3 17 0
2 -3 -17 0
10 3 18 0
10 -3 -18 0
3 3 23 0
3 -3 -23 0
6 3 35 0
6 -3 -35 0
9 3 42 0
9 -3 -42 0
7 3 44 0
7 -3 -44 0
3 3 46 0
3 -3 -46 0
7 3 48 0
7 -3 -48 0
6 3 52 0
6 -3 -52 0
5 3 53 0
5 -3 -53 0
10 3 57 0
10 -3 -57 0
3 4 11 0
3 -4 -11 0
8 4 15 0
8 -4 -15 0
6 4 20 0
6 -4 -20 0
8 4 21 0
8 -4 -21 0
5 4 22 0
5 -4 -22 0
9 4 23 0
9 -4 -23 0
3 4 25 0
3 -4 -25 0
4 4 35 0
4 -4 -35 0
9 4 41 0
9 -4 -41 0
10 4 46 0
10 -4 -46 0
1 4 53 0
1 -4 -53 0
10 4 55 0
10 -4 -55 0
6 4 56 0
6 -4 -56 0
1 4 59 0
1 -4 -59 0
2 4 60 0
2 -4 -60 0
7 5 7 0
7 -5 -7 0
9 5 10 0
9 -5 -10 0
4 5 15 0
4 -5 -15 0
1 5 18 0
1 -5 -18 0
1 5 19 0
1 -5 -19 0
5 5 21 0
5 -5 -21 0
1 5 22 0
1 -5 -22 0
3 5 25 0
3 -5 -25 0
10 5 32 0
10 -5 -32 0
10 5 36 0
10 -5 -36 0
9 5 38 0
9 -5 -38 0
3 5 51 0
3 -5 -51 0
6 5 52 0
6 -5 -52 0
4 5 53 0
4 -5 -53 0
8 6 16 0
8 -6 -16 0
6 6 24 0
6 -6 -24 0
7 6 31 0
7 -6 -31 0
6 6 35 0
6 -6 -35 0
1 6 36 0
1 -6 -36 0
5 6 37 0
5 -6 -37 0
10 6 38 0
10 -6 -38 0
10 6 40 0
10 -6 -40 0
8 6 41 0
8 -6 -41 0
3 6 50 0
3 -6 -50 0
8 6 53 0
8 -6 -53 0
7 7 21 0
7 -7 -21 0
4 7 25 0
4 -7 -25 0
7 7 28 0
7 -7 -28 0
2 7 31 0
2 -7 -31 0
5 7 35 0
5 -7 -35 0
9 7 39 0
9 -7 -39 0
9 7 52 0
9 -7 -52 0
4 7 55 0
4 -7 -55 0
3 7 58 0
3 -7 -58 0
9 8 16 0
9 -8 -16 0
4 8 17 0
4 -8 -17 0
7 8 22 0
7 -8 -22 0
10 8 25 0
10 -8 -25 0
6 8 26 0
6 -8 -26 0
7 8 31 0
7 -8 -31 0
9 8 37 0
9 -8 -37 0
5 8 39 0
5 -8 -39 0
10 8 42 0
10 -8 -42 0
4 8 45 0
4 -8 -45 0
9 8 46 0
9 -8 -46 0
7 8 49 0
7 -8 -49 0
10 8 53 0
10 -8 -53 0
5 8 56 0
5 -8 -56 0
3 9 10 0
3 -9 -10 0
10 9 12 0
10 -9 -12 0
10 9 23 0
10 -9 -23 0
2 9 29 0
2 -9 -29 0
9 9 34 0
9 -9 -34 0
7 9 39 0
7 -9 -39 0
5 9 42 0
5 -9 -42 0
7 9 43 0
7 -9 -43 0
3 9 47 0
3 -9 -47 0
8 9 59 0
8 -9 -59 0
4 10 13 0
4 -10 -13 0
5 10 15 0
5 -10 -15 0
3 10 25 0
3 -10 -25 0
2 10 28 0
2 -10 -28 0
3 10 43 0
3 -10 -43 0
6 10 49 0
6 -10 -49 0
5 10 53 0
5 -10 -53 0
2 10 56 0
2 -10 -56 0
10 11 16 0
10 -11 -16 0
2 11 26 0
2 -11 -26 0
2 11 30 0
2 -11 -30 0
5 11 33 0
5 -11 -33 0
8 11 34 0
8 -11 -34 0
10 11 36 0
10 -11 -36 0
10 11 38 0
10 -11 -38 0
7 11 39 0
7 -11 -39 0
4 11 44 0
4 -11 -44 0
8 11 46 0
8 -11 -46 0
4 11 50 0
4 -11 -50 0
3 11 55 0
3 -11 -55 0
3 11 60 0
3 -11 -60 0
6 12 26 0
6 -12 -26 0
3 12 27 0
3 -12 -27 0
2 12 31 0
2 -12 -31 0
8 12 32 0
8 -12 -32 0
2 12 38 0
2 -12 -38 0
8 12 43 0
8 -12 -43 0
2 12 47 0
2 -12 -47 0
8 12 50 0
8 -12 -50 0
1 12 53 0
1 -12 -53 0
10 12 60 0
10 -12 -60 0
1 13 19 0
1 -13 -19 0
6 13 22 0
6 -13 -22 0
2 13 29 0
2 -13 -29 0
3 13 30 0
3 -13 -30 0
8 13 31 0
8 -13 -31 0
8 13 34 0
8 -13 -34 0
7 13 40 0
7 -13 -40 0
10 13 41 0
10 -13 -41 0
7 14 20 0
7 -14 -20 0
8 14 21 0
8 -14 -21 0
1 14 29 0
1 -14 -29 0
2 14 33 0
2 -14 -33 0
6 14 34 0
6 -14 -34 0
1 14 36 0
1 -14 -36 0
1 14 40 0
1 -14 -40 0
3 14 43 0
3 -14 -43 0
5 14 44 0
5 -14 -44 0
9 14 46 0
9 -14 -46 0
6 14 60 0
6 -14 -60 0
8 15 33 0
8 -15 -33 0
1 15 34 0
1 -15 -34 0
2 15 48 0
2 -15 -48 0
10 15 54 0
10 -15 -54 0
3 15 56 0
3 -15 -56 0
9 15 57 0
9 -15 -57 0
2 16 19 0
2 -16 -19 0
10 16 23 0
10 -16 -23 0
1 16 35 0
1 -16 -35 0
9 16 37 0
9 -16 -37 0
1 16 39 0
1 -16 -39 0
1 16 41 0
1 -16 -41 0
10 16 46 0
10 -16 -46 0
6 16 49 0
6 -16 -49 0
2 16 54 0
2 -16 -54 0
2 16 58 0
2 -16 -58 0
4 16 60 0
4 -16 -60 0
10 17 18 0
10 -17 -18 0
9 17 23 0
9 -17 -23 0
4 17 26 0
4 -17 -26 0
6 17 30 0
6 -17 -30 0
6 17 32 0
6 -17 -32 0
5 17 33 0
5 -17 -33 0
7 17 35 0
7 -17 -35 0
1 17 36 0
1 -17 -36 0
6 17 42 0
6 -17 -42 0
8 17 44 0
8 -17 -44 0
4 17 45 0
4 -17 -45 0
10 17 53 0
10 -17 -53 0
6 18 21 0
6 -18 -21 0
9 18 30 0
9 -18 -30 0
8 18 33 0
8 -18 -33 0
7 18 35 0
7 -18 -35 0
1 18 36 0
1 -18 -36 0
8 18 40 0
8 -18 -40 0
9 18 41 0
9 -18 -41 0
10 18 45 0
10 -18 -45 0
9 18 51 0
9 -18 -51 0
9 18 52 0
9 -18 -52 0
10 18 55 0
10 -18 -55 0
8 19 24 0
8 -19 -24 0
10 19 27 0
10 -19 -27 0
10 19 34 0
10 -19 -34 0
7 19 43 0
7 -19 -43 0
5 19 45 0
5 -19 -45 0
2 19 51 0
2 -19 -51 0
9 19 54 0
9 -19 -54 0
9 19 58 0
9 -19 -58 0
1 20 22 0
1 -20 -22 0
7 20 29 0
7 -20 -29 0
3 20 31 0
3 -20 -31 0
7 20 33 0
7 -20 -33 0
3 20 35 0
3 -20 -35 0
8 20 44 0
8 -20 -44 0
4 20 45 0
4 -20 -45 0
4 20 51 0
4 -20 -51 0
3 20 56 0
3 -20 -56 0
1 20 58 0
1 -20 -58 0
7 21 23 0
7 -21 -23 0
3 21 24 0
3 -21 -24 0
7 21 25 0
7 -21 -25 0
6 21 26 0
6 -21 -26 0
10 21 28 0
10 -21 -28 0
3 21 30 0
3 -21 -30 0
6 21 33 0
6 -21 -33 0
8 21 40 0
8 -21 -40 0
2 21 41 0
2 -21 -41 0
5 21 51 0
5 -21 -51 0
6 21 56 0
6 -21 -56 0
10 22 31 0
10 -22 -31 0
5 22 34 0
5 -22 -34 0
4 22 36 0
4 -22 -36 0
9 22 42 0
9 -22 -42 0
5 22 46 0
5 -22 -46 0
1 22 47 0
1 -22 -47 0
4 22 50 0
4 -22 -50 0
6 22 51 0
6 -22 -51 0
9 22 57 0
9 -22 -57 0
3 23 27 0
3 -23 -27 0
7 23 28 0
7 -23 -28 0
5 23 29 0
5 -23 -29 0
5 23 30 0
5 -23 -30 0
4 23 34 0
4 -23 -34 0
8 23 35 0
8 -23 -35 0
2 23 36 0
2 -23 -36 0
7 23 38 0
7 -23 -38 0
1 23 41 0
1 -23 -41 0
5 23 48 0
5 -23 -48 0
7 23 49 0
7 -23 -49 0
7 23 52 0
7 -23 -52 0
7 24 30 0
7 -24 -30 0
4 24 39 0
4 -24 -39 0
2 24 44 0
2 -24 -44 0
7 24 46 0
7 -24 -46 0
7 24 47 0
7 -24 -47 0
8 24 48 0
8 -24 -48 0
4 24 50 0
4 -24 -50 0
8 24 52 0
8 -24 -52 0
3 24 56 0
3 -24 -56 0
10 24 57 0
10 -24 -57 0
7 24 60 0
7 -24 -60 0
7 25 33 0
7 -25 -33 0
3 25 38 0
3 -25 -38 0
6 25 42 0
6 -25 -42 0
1 25 43 0
1 -25 -43 0
3 25 53 0
3 -25 -53 0
9 25 54 0
9 -25 -54 0
7 25 58 0
7 -25 -58 0
1 26 32 0
1 -26 -32 0
2 26 34 0
2 -26 -34 0
4 26 38 0
4 -26 -38 0
6 26 48 0
6 -26 -48 0
6 26 53 0
6 -26 -53 0
7 26 54 0
7 -26 -54 0
3 27 30 0
3 -27 -30 0
8 27 31 0
8 -27 -31 0
3 27 34 0
3 -27 -34 0
4 27 36 0
4 -27 -36 0
2 27 51 0
2 -27 -51 0
10 27 56 0
10 -27 -56 0
1 27 58 0
1 -27 -58 0
9 28 31 0
9 -28 -31 0
4 28 33 0
4 -28 -33 0
2 28 36 0
2 -28 -36 0
5 28 38 0
5 -28 -38 0
10 28 39 0
10 -28 -39 0
10 28 42 0
10 -28 -42 0
8 28 46 0
8 -28 -46 0
7 28 47 0
7 -28 -47 0
2 28 50 0
2 -28 -50 0
7 28 57 0
7 -28 -57 0
4 28 58 0
4 -28 -58 0
8 28 60 0
8 -28 -60 0
10 29 30 0
10 -29 -30 0
10 29 32 0
10 -29 -32 0
9 29 33 0
9 -29 -33 0
3 29 37 0
3 -29 -37 0
8 29 39 0
8 -29 -39 0
6 29 42 0
6 -29 -42 0
3 29 46 0
3 -29 -46 0
10 29 47 0
10 -29 -47 0
10 29 48 0
10 -29 -48 0
9 29 53 0
9 -29 -53 0
5 29 54 0
5 -29 -54 0
6 29 59 0
6 -29 -59 0
2 30 32 0
2 -30 -32 0
3 30 34 0
3 -30 -34 0
9 30 35 0
9 -30 -35 0
5 30 38 0
5 -30 -38 0
5 30 40 0
5 -30 -40 0
9 30 41 0
9 -30 -41 0
5 30 43 0
5 -30 -43 0
3 30 48 0
3 -30 -48 0
2 30 50 0
2 -30 -50 0
7 30 54 0
7 -30 -54 0
8 30 59 0
8 -30 -59 0
2 31 32 0
2 -31 -32 0
7 31 36 0
7 -31 -36 0
5 31 46 0
5 -31 -46 0
9 31 48 0
9 -31 -48 0
8 31 50 0
8 -31 -50 0
2 31 55 0
2 -31 -55 0
3 31 56 0
3 -31 -56 0
5 31 58 0
5 -31 -58 0
2 32 37 0
2 -32 -37 0
2 32 39 0
2 -32 -39 0
4 32 43 0
4 -32 -43 0
4 32 47 0
4 -32 -47 0
10 32 48 0
10 -32 -48 0
10 32 52 0
10 -32 -52 0
7 33 37 0
7 -33 -37 0
9 33 40 0
9 -33 -40 0
9 33 41 0
9 -33 -41 0
5 33 53 0
5 -33 -53 0
4 33 55 0
4 -33 -55 0
4 34 35 0
4 -34 -35 0
7 34 37 0
7 -34 -37 0
7 34 38 0
7 -34 -38 0
3 34 43 0
3 -34 -43 0
2 34 52 0
2 -34 -52 0
1 34 56 0
1 -34 -56 0
2 35 38 0
2 -35 -38 0
7 35 44 0
7 -35 -44 0
4 35 50 0
4 -35 -50 0
3 35 52 0
3 -35 -52 0
4 35 59 0
4 -35 -59 0
1 36 46 0
1 -36 -46 0
5 36 48 0
5 -36 -48 0
10 36 49 0
10 -36 -49 0
6 36 55 0
6 -36 -55 0
3 36 56 0
3 -36 -56 0
7 37 39 0
7 -37 -39 0
8 37 50 0
8 -37 -50 0
5 37 51 0
5 -37 -51 0
2 37 55 0
2 -37 -55 0
9 37 58 0
9 -37 -58 0
7 37 59 0
7 -37 -59 0
6 38 40 0
6 -38 -40 0
3 38 46 0
3 -38 -46 0
6 38 50 0
6 -38 -50 0
5 38 60 0
5 -38 -60 0
9 39 51 0
9 -39 -51 0
4 39 52 0
4 -39 -52 0
3 39 53 0
3 -39 -53 0
4 39 54 0
4 -39 -54 0
8 39 59 0
8 -39 -59 0
7 40 42 0
7 -40 -42 0
10 40 43 0
10 -40 -43 0
4 40 46 0
4 -40 -46 0
9 40 52 0
9 -40 -52 0
2 40 54 0
2 -40 -54 0
5 40 57 0
5 -40 -57 0
1 41 43 0
1 -41 -43 0
8 41 45 0
8 -41 -45 0
8 41 47 0
8 -41 -47 0
3 41 50 0
3 -41 -50 0
2 41 52 0
2 -41 -52 0
9 41 53 0
9 -41 -53 0
8 41 58 0
8 -41 -58 0
1 41 59 0
1 -41 -59 0
5 42 44 0
5 -42 -44 0
10 42 45 0
10 -42 -45 0
8 42 50 0
8 -42 -50 0
3 42 52 0
3 -42 -52 0
5 42 54 0
5 -42 -54 0
9 42 55 0
9 -42 -55 0
1 42 58 0
1 -42 -58 0
1 43 50 0
1 -43 -50 0
4 43 51 0
4 -43 -51 0
4 43 53 0
4 -43 -53 0
7 43 57 0
7 -43 -57 0
9 43 58 0
9 -43 -58 0
2 43 59 0
2 -43 -59 0
1 44 47 0
1 -44 -47 0
1 44 48 0
1 -44 -48 0
5 44 50 0
5 -44 -50 0
8 44 53 0
8 -44 -53 0
7 44 59 0
7 -44 -59 0
5 45 54 0
5 -45 -54 0
2 45 58 0
2 -45 -58 0
6 46 55 0
6 -46 -55 0
6 46 57 0
6 -46 -57 0
6 46 60 0
6 -46 -60 0
6 47 49 0
6 -47 -49 0
4 47 56 0
4 -47 -56 0
4 48 49 0
4 -48 -49 0
9 48 54 0
9 -48 -54 0
5 48 59 0
5 -48 -59 0
2 48 60 0
2 -48 -60 0
7 50 53 0
7 -50 -53 0
6 51 55 0
6 -51 -55 0
7 51 57 0
7 -51 -57 0
6 51 58 0
6 -51 -58 0
3 52 60 0
3 -52 -60 0
9 53 54 0
9 -53 -54 0
1 53 57 0
1 -53 -57 0
1 53 58 0
1 -53 -58 0
10 54 55 0
10 -54 -55 0
2 57 59 0
2 -57 -59 0
